computational_data/solutions/Reg3_n40_s6.sol
Optimal - objective value 18.00000000
      7 r_7                         1                       1
      9 r_9                         1                       1
     11 r_11                        1                       1
     19 r_19                        1                       1
     24 r_24                        1                       1
     25 r_25                        1                       1
     30 r_30                        1                       1
     35 r_35                        1                       1
     36 r_36                        1                       1
     40 b_0                         1                       1
     43 b_3                         1                       1
     45 b_5                         1                       1
     46 b_6                         1                       1
     53 b_13                        1                       1
     55 b_15                        1                       1
     58 b_18                        1                       1
     62 b_22                        1                       1
     78 b_38                        1                       1
